Automatic mesh
0
Gamma
  8  8  6
  0.000  0.000  0.000